unknown
(:reason-unknown "(incomplete quantifiers)")
(((ControlFlow 0 0) 9711))
(((ControlFlow 0 9711) 9271))
(((ControlFlow 0 9271) 9285))
(((ControlFlow 0 9285) 9345))
(((ControlFlow 0 9345) (- 9958)))
unsat
unknown
(:reason-unknown "(incomplete quantifiers)")
(((ControlFlow 0 0) 10015))
(((ControlFlow 0 10015) 9505))
(((ControlFlow 0 9505) 9519))
(((ControlFlow 0 9519) 9579))
(((ControlFlow 0 9579) (- 10262)))
unsat
